DATASET = "thpack5";
INSTANCE = "088";

WIDTH = 233;
HEIGHT = 220;
LENGTH = 587;

NO_OF_SHAPES = 12;
size = [|
  100,60,40 |
  89,67,34 |
  92,80,38 |
  90,81,24 |
  84,52,38 |
  77,54,46 |
  90,49,33 |
  78,45,27 |
  76,57,28 |
  102,38,27 |
  55,45,39 |
  115,78,29 |
|];

verticality = [|
  0,1,1 |
  0,1,1 |
  0,0,1 |
  0,0,1 |
  0,1,1 |
  1,1,1 |
  0,1,1 |
  0,1,1 |
  0,0,1 |
  0,1,1 |
  1,1,1 |
  0,0,1 |
|];

box_count = [
  9,
  15,
  15,
  13,
  14,
  19,
  11,
  13,
  17,
  13,
  13,
  19,
];
